(set-logic QF_BV)
(declare-fun _substvar_211_ () (_ BitVec 1024))
(assert (and true true true true true true true true true true true true (not (= ((_ extract 895 768) _substvar_211_) ((_ extract 767 640) _substvar_211_))) true true true true true true true true true true true true true true true true true true true true true true true true))
(check-sat)
(exit)
